p tdp 50 85
1 11
1 2
2 12
2 3
3 13
3 4
4 14
4 5
5 15
5 6
6 16
6 7
7 17
7 8
8 18
8 9
9 19
9 10
10 20
11 21
11 12
12 22
12 13
13 23
13 14
14 24
14 15
15 25
15 16
16 26
16 17
17 27
17 18
18 28
18 19
19 29
19 20
20 30
21 31
21 22
22 32
22 23
23 33
23 24
24 34
24 25
25 35
25 26
26 36
26 27
27 37
27 28
28 38
28 29
29 39
29 30
30 40
31 41
31 32
32 42
32 33
33 43
33 34
34 44
34 35
35 45
35 36
36 46
36 37
37 47
37 38
38 48
38 39
39 49
39 40
40 50
41 42
42 43
43 44
44 45
45 46
46 47
47 48
48 49
49 50
